
Gurobi 10.0.3 (linux64, gurobi_cl) logging started Thu Nov  2 11:34:00 2023

Set parameter Username
Set parameter TimeLimit to value 3600
Set parameter LogFile to value "RCPSP_287.log"
Set parameter Threads to value 32
Academic license - for non-commercial use only - expires 2024-10-30
Using license file /home/jrivera6/gurobi-licenses/v1003/compute-0-35/gurobi.lic

Gurobi Optimizer version 10.0.3 build v10.0.3rc0 (linux64)
Copyright (c) 2023, Gurobi Optimization, LLC

Read MPS format model from file RCPSP_287.mps
Reading time = 0.01 seconds
RCPSP_287: 5339 rows, 2080 columns, 18883 nonzeros

CPU model: Intel(R) Xeon(R) Gold 6130 CPU @ 2.10GHz, instruction set [SSE2|AVX|AVX2|AVX512]
Thread count: 32 physical cores, 32 logical processors, using up to 32 threads

Optimize a model with 5339 rows, 2080 columns and 18883 nonzeros
Model fingerprint: 0xc625830d
Variable types: 32 continuous, 2048 integer (2048 binary)
Coefficient statistics:
  Matrix range     [1e+00, 2e+02]
  Objective range  [1e+00, 1e+00]
  Bounds range     [1e+00, 1e+00]
  RHS range        [1e+00, 2e+02]
Presolve removed 3287 rows and 1279 columns
Presolve time: 0.22s
Presolved: 2052 rows, 801 columns, 7097 nonzeros
Variable types: 31 continuous, 770 integer (770 binary)

Root relaxation: objective 4.600000e+01, 298 iterations, 0.00 seconds (0.00 work units)

    Nodes    |    Current Node    |     Objective Bounds      |     Work
 Expl Unexpl |  Obj  Depth IntInf | Incumbent    BestBd   Gap | It/Node Time

     0     0   46.00000    0   57          -   46.00000      -     -    0s
     0     0   48.00000    0   57          -   48.00000      -     -    0s
     0     0   48.00000    0   91          -   48.00000      -     -    0s
     0     0   48.00000    0   93          -   48.00000      -     -    0s
H    0     0                      96.0000000   49.20000  48.8%     -    1s
     0     0   49.29341    0   51   96.00000   49.29341  48.7%     -    1s
     0     0   51.00000    0  104   96.00000   51.00000  46.9%     -    1s
     0     0   51.00000    0   78   96.00000   51.00000  46.9%     -    1s
     0     0   51.00071    0  123   96.00000   51.00071  46.9%     -    1s
     0     0   51.01667    0  112   96.00000   51.01667  46.9%     -    1s
H    0     0                      78.0000000   51.01667  34.6%     -    1s
     0     0   51.01667    0  127   78.00000   51.01667  34.6%     -    1s
     0     0   52.56522    0   89   78.00000   52.56522  32.6%     -    1s
     0     0   52.56522    0   95   78.00000   52.56522  32.6%     -    1s
     0     0   52.60000    0  129   78.00000   52.60000  32.6%     -    1s
     0     0   52.60000    0  106   78.00000   52.60000  32.6%     -    2s
H    0     0                      75.0000000   52.60000  29.9%     -    2s
     0     0   52.75000    0  111   75.00000   52.75000  29.7%     -    2s
     0     0   52.75000    0  103   75.00000   52.75000  29.7%     -    2s
     0     0   52.75292    0  132   75.00000   52.75292  29.7%     -    2s
     0     0   52.75457    0  135   75.00000   52.75457  29.7%     -    2s
     0     0   52.75457    0  137   75.00000   52.75457  29.7%     -    2s
     0     0   52.75789    0  117   75.00000   52.75789  29.7%     -    2s
     0     0   52.76552    0  106   75.00000   52.76552  29.6%     -    2s
     0     0   52.76552    0  104   75.00000   52.76552  29.6%     -    2s
     0     0   52.80135    0  120   75.00000   52.80135  29.6%     -    2s
     0     0   52.82944    0  123   75.00000   52.82944  29.6%     -    2s
     0     0   52.83066    0  102   75.00000   52.83066  29.6%     -    3s
     0     0   52.83182    0   98   75.00000   52.83182  29.6%     -    3s
     0     0   52.83182    0  106   75.00000   52.83182  29.6%     -    3s
     0     0   52.86318    0   99   75.00000   52.86318  29.5%     -    3s
     0     0   52.86409    0  108   75.00000   52.86409  29.5%     -    3s
     0     0   52.89680    0   88   75.00000   52.89680  29.5%     -    3s
     0     0   52.91216    0  109   75.00000   52.91216  29.5%     -    3s
     0     0   52.91216    0   94   75.00000   52.91216  29.5%     -    3s
     0     0   52.91827    0  107   75.00000   52.91827  29.4%     -    3s
     0     0   52.93543    0  113   75.00000   52.93543  29.4%     -    3s
     0     0   52.93543    0  119   75.00000   52.93543  29.4%     -    3s
     0     0   52.97436    0  111   75.00000   52.97436  29.4%     -    3s
     0     0   53.00443    0  107   75.00000   53.00443  29.3%     -    3s
     0     0   53.00443    0  110   75.00000   53.00443  29.3%     -    3s
     0     0   53.01696    0  120   75.00000   53.01696  29.3%     -    4s
     0     0   53.03014    0  108   75.00000   53.03014  29.3%     -    4s
     0     0   53.03903    0  103   75.00000   53.03903  29.3%     -    4s
     0     0   53.03903    0  103   75.00000   53.03903  29.3%     -    4s
     0     0   53.03903    0  101   75.00000   53.03903  29.3%     -    4s
     0     0   53.03903    0   99   75.00000   53.03903  29.3%     -    4s
     0     0   53.15027    0  106   75.00000   53.15027  29.1%     -    4s
     0     0   53.16366    0  101   75.00000   53.16366  29.1%     -    4s
     0     0   53.16366    0  101   75.00000   53.16366  29.1%     -    4s
     0     0   53.19679    0  106   75.00000   53.19679  29.1%     -    4s
     0     0   53.21493    0  114   75.00000   53.21493  29.0%     -    4s
     0     0   53.21838    0  102   75.00000   53.21838  29.0%     -    4s
     0     0   53.21838    0   98   75.00000   53.21838  29.0%     -    4s
     0     0   53.24105    0  113   75.00000   53.24105  29.0%     -    5s
     0     0   53.24105    0  107   75.00000   53.24105  29.0%     -    5s
H    0     0                      74.0000000   53.24105  28.1%     -    5s
     0     0   53.24105    0  121   74.00000   53.24105  28.1%     -    5s
     0     0   53.24105    0  109   74.00000   53.24105  28.1%     -    5s
     0     0   53.24367    0   60   74.00000   53.24367  28.0%     -    5s
     0     0   53.24367    0   96   74.00000   53.24367  28.0%     -    5s
     0     0   53.24367    0  100   74.00000   53.24367  28.0%     -    5s
     0     0   53.24367    0   67   74.00000   53.24367  28.0%     -    5s
     0     2   53.24367    0   51   74.00000   53.24367  28.0%     -    6s
H   34    34                      74.0000000   58.00000  21.6%   119    8s
   366   379   66.00000   15   78   74.00000   61.00000  17.6%  47.3   10s
  1905  1474 infeasible   48        74.00000   61.08148  17.5%  19.3   15s
H 2267  1474                      73.0000000   61.08148  16.3%  18.0   15s
  3317  1915   71.00000   18   67   73.00000   61.08148  16.3%  16.3   36s
  3319  1916   67.00000   26   23   73.00000   61.08148  16.3%  16.3   40s
  3322  1918   72.00000   30   86   73.00000   61.08148  16.3%  16.3   45s
  3324  1920   68.00000   38   67   73.00000   61.08148  16.3%  16.3   51s
  3325  1920   69.40000   22   64   73.00000   61.08148  16.3%  16.3   55s
  3336  1928   70.00000   37   55   73.00000   62.00000  15.1%  16.2   60s
H 3337  1831                      72.0000000   62.00000  13.9%  16.2   60s
H 3338  1740                      71.0000000   62.00000  12.7%  16.2   61s
H 3339  1653                      70.0000000   62.00000  11.4%  16.2   61s
  3345  1660   62.00000   16   67   70.00000   62.00000  11.4%  21.1   65s
  3382  1688   65.00000   21   80   70.00000   62.00000  11.4%  22.3   70s
  3476  1700   69.00000   23   34   70.00000   62.00000  11.4%  25.4   75s
  3623  1690     cutoff   26        70.00000   62.00000  11.4%  26.6   80s
* 3702  1591              31      69.0000000   62.00000  10.1%  27.5   81s
H 3923  1396                      68.0000000   62.00000  8.82%  28.3   83s
  4050  1264 infeasible   25        68.00000   62.00000  8.82%  28.5   86s

Cutting planes:
  Learned: 5
  Gomory: 35
  Cover: 26
  Implied bound: 16
  Projected implied bound: 1
  Clique: 6
  MIR: 137
  StrongCG: 9
  Flow cover: 234
  RLT: 19
  Relax-and-lift: 37

Explored 4080 nodes (127433 simplex iterations) in 87.16 seconds (3.72 work units)
Thread count was 32 (of 32 available processors)

Solution count 10: 68 69 70 ... 78

Optimal solution found (tolerance 1.00e-04)
Best objective 6.800000000000e+01, best bound 6.800000000000e+01, gap 0.0000%

Wrote result file 'RCPSP_287.sol'

